c " random instance " 
p edges 200 4138
e 1 6
e 1 8
e 1 9
e 1 11
e 1 15
e 1 17
e 1 27
e 1 40
e 1 41
e 1 43
e 1 46
e 1 56
e 1 66
e 1 68
e 1 85
e 1 87
e 1 93
e 1 97
e 1 103
e 1 105
e 1 117
e 1 118
e 1 131
e 1 136
e 1 139
e 1 140
e 1 142
e 1 149
e 1 159
e 1 167
e 1 171
e 1 174
e 1 182
e 1 189
e 1 191
e 1 197
e 1 199
e 2 13
e 2 17
e 2 18
e 2 36
e 2 38
e 2 45
e 2 47
e 2 56
e 2 60
e 2 64
e 2 65
e 2 66
e 2 71
e 2 72
e 2 74
e 2 82
e 2 90
e 2 91
e 2 92
e 2 96
e 2 99
e 2 103
e 2 105
e 2 114
e 2 115
e 2 116
e 2 120
e 2 124
e 2 125
e 2 137
e 2 141
e 2 147
e 2 153
e 2 154
e 2 156
e 2 160
e 2 161
e 2 164
e 2 172
e 2 174
e 2 178
e 2 180
e 2 188
e 2 193
e 2 194
e 2 200
e 3 9
e 3 14
e 3 26
e 3 32
e 3 33
e 3 34
e 3 36
e 3 38
e 3 40
e 3 41
e 3 42
e 3 50
e 3 52
e 3 56
e 3 67
e 3 76
e 3 80
e 3 82
e 3 84
e 3 89
e 3 91
e 3 92
e 3 94
e 3 96
e 3 98
e 3 108
e 3 119
e 3 131
e 3 133
e 3 138
e 3 141
e 3 149
e 3 152
e 3 155
e 3 160
e 3 167
e 3 168
e 3 169
e 3 170
e 3 171
e 3 174
e 3 177
e 3 178
e 3 183
e 3 188
e 3 195
e 4 5
e 4 10
e 4 23
e 4 29
e 4 30
e 4 32
e 4 37
e 4 40
e 4 41
e 4 44
e 4 50
e 4 60
e 4 69
e 4 78
e 4 81
e 4 84
e 4 90
e 4 91
e 4 92
e 4 96
e 4 99
e 4 106
e 4 115
e 4 118
e 4 124
e 4 125
e 4 136
e 4 137
e 4 144
e 4 153
e 4 167
e 4 172
e 4 176
e 4 177
e 4 183
e 4 187
e 4 189
e 4 197
e 4 200
e 5 9
e 5 12
e 5 13
e 5 19
e 5 20
e 5 30
e 5 43
e 5 46
e 5 52
e 5 62
e 5 63
e 5 66
e 5 75
e 5 76
e 5 78
e 5 83
e 5 92
e 5 101
e 5 102
e 5 116
e 5 117
e 5 118
e 5 119
e 5 121
e 5 124
e 5 125
e 5 130
e 5 136
e 5 148
e 5 161
e 5 162
e 5 173
e 5 178
e 5 184
e 5 189
e 5 199
e 6 7
e 6 8
e 6 10
e 6 11
e 6 17
e 6 22
e 6 23
e 6 28
e 6 29
e 6 32
e 6 33
e 6 38
e 6 42
e 6 43
e 6 48
e 6 66
e 6 82
e 6 83
e 6 87
e 6 93
e 6 98
e 6 104
e 6 107
e 6 118
e 6 123
e 6 127
e 6 135
e 6 138
e 6 142
e 6 143
e 6 145
e 6 148
e 6 152
e 6 156
e 6 158
e 6 159
e 6 160
e 6 180
e 6 181
e 6 183
e 6 186
e 6 189
e 6 191
e 7 8
e 7 12
e 7 23
e 7 30
e 7 31
e 7 32
e 7 33
e 7 34
e 7 37
e 7 44
e 7 46
e 7 51
e 7 56
e 7 59
e 7 69
e 7 76
e 7 87
e 7 92
e 7 95
e 7 113
e 7 114
e 7 121
e 7 123
e 7 127
e 7 129
e 7 131
e 7 133
e 7 136
e 7 138
e 7 139
e 7 149
e 7 154
e 7 156
e 7 157
e 7 168
e 7 171
e 7 177
e 7 178
e 7 180
e 7 186
e 7 193
e 8 12
e 8 14
e 8 17
e 8 18
e 8 22
e 8 23
e 8 31
e 8 39
e 8 44
e 8 57
e 8 60
e 8 66
e 8 77
e 8 78
e 8 81
e 8 82
e 8 84
e 8 85
e 8 87
e 8 89
e 8 91
e 8 92
e 8 96
e 8 97
e 8 104
e 8 108
e 8 109
e 8 112
e 8 121
e 8 126
e 8 128
e 8 130
e 8 134
e 8 142
e 8 146
e 8 150
e 8 153
e 8 161
e 8 163
e 8 168
e 8 171
e 8 172
e 8 174
e 8 180
e 8 181
e 8 186
e 8 189
e 9 11
e 9 13
e 9 17
e 9 22
e 9 30
e 9 44
e 9 45
e 9 46
e 9 60
e 9 62
e 9 63
e 9 67
e 9 68
e 9 71
e 9 75
e 9 78
e 9 79
e 9 81
e 9 83
e 9 86
e 9 89
e 9 96
e 9 114
e 9 117
e 9 118
e 9 121
e 9 132
e 9 145
e 9 149
e 9 151
e 9 154
e 9 164
e 9 169
e 9 170
e 9 171
e 9 178
e 9 189
e 9 190
e 9 196
e 10 22
e 10 25
e 10 30
e 10 35
e 10 49
e 10 52
e 10 64
e 10 65
e 10 70
e 10 89
e 10 98
e 10 99
e 10 105
e 10 107
e 10 109
e 10 113
e 10 125
e 10 127
e 10 135
e 10 144
e 10 147
e 10 148
e 10 152
e 10 155
e 10 161
e 10 173
e 10 175
e 10 176
e 10 178
e 10 179
e 10 188
e 10 192
e 10 193
e 11 14
e 11 15
e 11 17
e 11 18
e 11 21
e 11 22
e 11 26
e 11 31
e 11 33
e 11 39
e 11 45
e 11 48
e 11 58
e 11 60
e 11 63
e 11 64
e 11 65
e 11 66
e 11 73
e 11 77
e 11 80
e 11 81
e 11 85
e 11 87
e 11 93
e 11 104
e 11 105
e 11 112
e 11 121
e 11 125
e 11 126
e 11 136
e 11 153
e 11 156
e 11 157
e 11 160
e 11 161
e 11 166
e 11 168
e 11 173
e 11 185
e 11 200
e 12 15
e 12 23
e 12 25
e 12 34
e 12 37
e 12 39
e 12 42
e 12 43
e 12 45
e 12 56
e 12 60
e 12 74
e 12 77
e 12 78
e 12 83
e 12 93
e 12 95
e 12 96
e 12 98
e 12 104
e 12 111
e 12 116
e 12 117
e 12 118
e 12 131
e 12 133
e 12 146
e 12 159
e 12 167
e 12 168
e 12 172
e 12 174
e 12 182
e 12 183
e 12 192
e 12 195
e 12 197
e 12 198
e 13 18
e 13 24
e 13 25
e 13 29
e 13 32
e 13 46
e 13 51
e 13 52
e 13 57
e 13 63
e 13 66
e 13 69
e 13 76
e 13 79
e 13 81
e 13 90
e 13 95
e 13 100
e 13 101
e 13 103
e 13 108
e 13 118
e 13 120
e 13 126
e 13 138
e 13 140
e 13 144
e 13 152
e 13 156
e 13 163
e 13 164
e 13 166
e 13 172
e 13 179
e 13 181
e 13 183
e 13 186
e 13 187
e 13 190
e 13 194
e 13 198
e 14 28
e 14 31
e 14 39
e 14 41
e 14 47
e 14 52
e 14 60
e 14 61
e 14 69
e 14 74
e 14 85
e 14 91
e 14 98
e 14 100
e 14 109
e 14 110
e 14 111
e 14 113
e 14 116
e 14 121
e 14 148
e 14 157
e 14 158
e 14 160
e 14 167
e 14 173
e 14 174
e 14 175
e 14 176
e 14 183
e 14 184
e 14 186
e 14 189
e 14 191
e 14 196
e 14 198
e 15 18
e 15 24
e 15 32
e 15 33
e 15 40
e 15 48
e 15 52
e 15 53
e 15 54
e 15 61
e 15 67
e 15 71
e 15 75
e 15 78
e 15 86
e 15 100
e 15 102
e 15 103
e 15 104
e 15 112
e 15 115
e 15 116
e 15 122
e 15 123
e 15 127
e 15 138
e 15 144
e 15 147
e 15 148
e 15 149
e 15 152
e 15 184
e 15 198
e 15 199
e 16 19
e 16 23
e 16 30
e 16 34
e 16 37
e 16 41
e 16 43
e 16 48
e 16 50
e 16 56
e 16 61
e 16 68
e 16 77
e 16 78
e 16 79
e 16 83
e 16 84
e 16 86
e 16 91
e 16 104
e 16 118
e 16 120
e 16 121
e 16 124
e 16 134
e 16 137
e 16 138
e 16 141
e 16 149
e 16 155
e 16 157
e 16 166
e 16 168
e 16 175
e 16 177
e 16 187
e 16 195
e 17 24
e 17 33
e 17 36
e 17 45
e 17 49
e 17 53
e 17 56
e 17 61
e 17 63
e 17 67
e 17 69
e 17 74
e 17 75
e 17 84
e 17 97
e 17 102
e 17 103
e 17 112
e 17 116
e 17 118
e 17 121
e 17 122
e 17 125
e 17 130
e 17 134
e 17 141
e 17 146
e 17 154
e 17 155
e 17 165
e 17 166
e 17 168
e 17 170
e 17 172
e 17 177
e 17 181
e 17 182
e 17 189
e 17 192
e 17 198
e 18 21
e 18 22
e 18 28
e 18 38
e 18 39
e 18 41
e 18 48
e 18 52
e 18 66
e 18 70
e 18 88
e 18 106
e 18 107
e 18 120
e 18 122
e 18 125
e 18 126
e 18 127
e 18 129
e 18 139
e 18 140
e 18 141
e 18 144
e 18 145
e 18 152
e 18 154
e 18 155
e 18 157
e 18 158
e 18 178
e 18 186
e 19 21
e 19 24
e 19 30
e 19 33
e 19 36
e 19 40
e 19 43
e 19 50
e 19 51
e 19 52
e 19 54
e 19 72
e 19 82
e 19 83
e 19 88
e 19 89
e 19 90
e 19 91
e 19 93
e 19 97
e 19 110
e 19 111
e 19 113
e 19 114
e 19 116
e 19 118
e 19 119
e 19 122
e 19 148
e 19 149
e 19 150
e 19 154
e 19 155
e 19 160
e 19 175
e 19 176
e 19 177
e 19 179
e 19 182
e 19 183
e 19 189
e 19 190
e 19 196
e 20 26
e 20 29
e 20 34
e 20 41
e 20 51
e 20 54
e 20 57
e 20 62
e 20 67
e 20 73
e 20 76
e 20 86
e 20 87
e 20 88
e 20 91
e 20 97
e 20 99
e 20 101
e 20 102
e 20 107
e 20 117
e 20 122
e 20 125
e 20 131
e 20 132
e 20 138
e 20 145
e 20 154
e 20 155
e 20 158
e 20 159
e 20 160
e 20 161
e 20 163
e 20 174
e 20 178
e 20 185
e 20 186
e 20 188
e 20 191
e 20 194
e 20 197
e 20 200
e 21 29
e 21 39
e 21 41
e 21 45
e 21 50
e 21 55
e 21 57
e 21 60
e 21 62
e 21 67
e 21 74
e 21 82
e 21 83
e 21 87
e 21 94
e 21 103
e 21 106
e 21 108
e 21 110
e 21 116
e 21 118
e 21 120
e 21 124
e 21 137
e 21 138
e 21 139
e 21 151
e 21 153
e 21 154
e 21 158
e 21 165
e 21 169
e 21 182
e 21 183
e 21 187
e 21 188
e 21 193
e 21 195
e 21 197
e 22 24
e 22 27
e 22 36
e 22 43
e 22 44
e 22 45
e 22 52
e 22 54
e 22 58
e 22 72
e 22 88
e 22 91
e 22 93
e 22 98
e 22 102
e 22 105
e 22 107
e 22 111
e 22 114
e 22 122
e 22 130
e 22 137
e 22 141
e 22 150
e 22 152
e 22 172
e 22 178
e 22 183
e 22 184
e 22 185
e 22 187
e 23 24
e 23 25
e 23 26
e 23 29
e 23 37
e 23 40
e 23 42
e 23 44
e 23 47
e 23 50
e 23 54
e 23 55
e 23 59
e 23 63
e 23 66
e 23 68
e 23 69
e 23 75
e 23 78
e 23 87
e 23 91
e 23 95
e 23 97
e 23 101
e 23 117
e 23 119
e 23 120
e 23 126
e 23 129
e 23 130
e 23 134
e 23 137
e 23 138
e 23 141
e 23 148
e 23 149
e 23 150
e 23 153
e 23 154
e 23 156
e 23 162
e 23 167
e 23 169
e 23 179
e 23 181
e 23 182
e 23 184
e 23 185
e 23 187
e 23 188
e 23 190
e 23 195
e 23 199
e 24 25
e 24 26
e 24 35
e 24 49
e 24 61
e 24 66
e 24 71
e 24 77
e 24 80
e 24 81
e 24 89
e 24 91
e 24 93
e 24 94
e 24 97
e 24 98
e 24 101
e 24 104
e 24 106
e 24 113
e 24 115
e 24 128
e 24 133
e 24 138
e 24 140
e 24 148
e 24 159
e 24 161
e 24 172
e 24 174
e 24 183
e 24 186
e 24 192
e 24 194
e 24 197
e 25 26
e 25 29
e 25 30
e 25 38
e 25 40
e 25 41
e 25 44
e 25 53
e 25 54
e 25 71
e 25 83
e 25 84
e 25 89
e 25 96
e 25 101
e 25 105
e 25 108
e 25 109
e 25 110
e 25 111
e 25 125
e 25 133
e 25 135
e 25 140
e 25 142
e 25 155
e 25 164
e 25 167
e 25 170
e 25 173
e 25 176
e 25 179
e 25 180
e 25 199
e 26 35
e 26 38
e 26 39
e 26 42
e 26 45
e 26 46
e 26 50
e 26 54
e 26 59
e 26 65
e 26 74
e 26 86
e 26 87
e 26 88
e 26 99
e 26 102
e 26 103
e 26 107
e 26 111
e 26 116
e 26 117
e 26 125
e 26 126
e 26 128
e 26 132
e 26 135
e 26 138
e 26 141
e 26 143
e 26 151
e 26 155
e 26 157
e 26 165
e 26 168
e 26 169
e 26 171
e 26 177
e 26 182
e 26 183
e 26 190
e 26 198
e 27 28
e 27 33
e 27 34
e 27 36
e 27 43
e 27 46
e 27 47
e 27 55
e 27 59
e 27 62
e 27 65
e 27 67
e 27 77
e 27 78
e 27 80
e 27 82
e 27 83
e 27 86
e 27 93
e 27 94
e 27 95
e 27 101
e 27 104
e 27 105
e 27 112
e 27 114
e 27 116
e 27 120
e 27 127
e 27 131
e 27 143
e 27 144
e 27 147
e 27 148
e 27 158
e 27 162
e 27 167
e 27 169
e 27 172
e 27 173
e 27 185
e 27 193
e 27 199
e 28 29
e 28 39
e 28 46
e 28 48
e 28 63
e 28 64
e 28 77
e 28 80
e 28 81
e 28 83
e 28 90
e 28 93
e 28 95
e 28 97
e 28 98
e 28 104
e 28 105
e 28 106
e 28 115
e 28 122
e 28 138
e 28 139
e 28 157
e 28 158
e 28 159
e 28 163
e 28 166
e 28 168
e 28 171
e 28 177
e 28 183
e 28 186
e 28 188
e 28 189
e 28 192
e 29 32
e 29 37
e 29 38
e 29 39
e 29 42
e 29 48
e 29 52
e 29 54
e 29 58
e 29 61
e 29 71
e 29 73
e 29 74
e 29 76
e 29 84
e 29 85
e 29 87
e 29 88
e 29 89
e 29 105
e 29 112
e 29 127
e 29 136
e 29 137
e 29 144
e 29 147
e 29 149
e 29 158
e 29 171
e 29 173
e 29 174
e 29 188
e 29 197
e 29 198
e 30 33
e 30 41
e 30 42
e 30 50
e 30 57
e 30 64
e 30 67
e 30 71
e 30 74
e 30 79
e 30 84
e 30 85
e 30 97
e 30 101
e 30 114
e 30 143
e 30 149
e 30 152
e 30 157
e 30 164
e 30 165
e 30 166
e 30 167
e 30 171
e 30 174
e 30 182
e 30 183
e 30 188
e 30 193
e 30 199
e 31 36
e 31 37
e 31 39
e 31 40
e 31 43
e 31 44
e 31 51
e 31 57
e 31 59
e 31 60
e 31 64
e 31 66
e 31 68
e 31 76
e 31 82
e 31 91
e 31 92
e 31 94
e 31 109
e 31 119
e 31 127
e 31 131
e 31 144
e 31 149
e 31 152
e 31 153
e 31 167
e 31 169
e 31 170
e 31 174
e 31 188
e 31 189
e 31 198
e 32 39
e 32 45
e 32 49
e 32 55
e 32 57
e 32 59
e 32 60
e 32 63
e 32 67
e 32 68
e 32 72
e 32 88
e 32 94
e 32 98
e 32 112
e 32 113
e 32 125
e 32 126
e 32 131
e 32 134
e 32 139
e 32 142
e 32 147
e 32 172
e 32 181
e 32 183
e 32 185
e 32 193
e 32 199
e 32 200
e 33 34
e 33 39
e 33 41
e 33 46
e 33 47
e 33 59
e 33 62
e 33 66
e 33 74
e 33 78
e 33 83
e 33 90
e 33 91
e 33 92
e 33 95
e 33 96
e 33 100
e 33 106
e 33 107
e 33 110
e 33 124
e 33 128
e 33 131
e 33 132
e 33 133
e 33 139
e 33 143
e 33 144
e 33 147
e 33 153
e 33 162
e 33 176
e 33 181
e 33 198
e 34 35
e 34 54
e 34 64
e 34 65
e 34 66
e 34 68
e 34 72
e 34 73
e 34 74
e 34 77
e 34 79
e 34 80
e 34 82
e 34 84
e 34 92
e 34 97
e 34 99
e 34 102
e 34 110
e 34 116
e 34 119
e 34 121
e 34 122
e 34 125
e 34 138
e 34 141
e 34 145
e 34 148
e 34 158
e 34 183
e 34 186
e 34 188
e 35 42
e 35 45
e 35 46
e 35 47
e 35 48
e 35 50
e 35 52
e 35 69
e 35 78
e 35 82
e 35 93
e 35 99
e 35 103
e 35 115
e 35 117
e 35 122
e 35 124
e 35 126
e 35 127
e 35 129
e 35 130
e 35 135
e 35 136
e 35 137
e 35 144
e 35 153
e 35 157
e 35 160
e 35 170
e 35 176
e 35 181
e 35 186
e 35 188
e 35 194
e 35 195
e 35 196
e 36 40
e 36 44
e 36 48
e 36 59
e 36 62
e 36 69
e 36 70
e 36 81
e 36 87
e 36 89
e 36 100
e 36 101
e 36 104
e 36 105
e 36 114
e 36 122
e 36 148
e 36 155
e 36 164
e 36 165
e 36 166
e 36 168
e 36 173
e 36 174
e 36 176
e 36 186
e 36 189
e 36 195
e 36 199
e 37 39
e 37 40
e 37 50
e 37 52
e 37 56
e 37 71
e 37 73
e 37 83
e 37 97
e 37 102
e 37 104
e 37 112
e 37 118
e 37 127
e 37 130
e 37 134
e 37 135
e 37 137
e 37 138
e 37 146
e 37 147
e 37 148
e 37 153
e 37 156
e 37 164
e 37 165
e 37 171
e 37 179
e 37 182
e 37 187
e 37 192
e 37 197
e 37 199
e 37 200
e 38 43
e 38 44
e 38 46
e 38 50
e 38 67
e 38 68
e 38 72
e 38 73
e 38 81
e 38 90
e 38 92
e 38 98
e 38 100
e 38 108
e 38 131
e 38 144
e 38 148
e 38 152
e 38 156
e 38 158
e 38 159
e 38 168
e 38 173
e 38 176
e 38 182
e 38 185
e 38 186
e 38 189
e 38 194
e 39 51
e 39 55
e 39 64
e 39 66
e 39 67
e 39 68
e 39 70
e 39 71
e 39 75
e 39 76
e 39 80
e 39 81
e 39 85
e 39 90
e 39 92
e 39 98
e 39 101
e 39 105
e 39 110
e 39 112
e 39 113
e 39 115
e 39 116
e 39 122
e 39 133
e 39 135
e 39 141
e 39 147
e 39 151
e 39 156
e 39 160
e 39 167
e 39 170
e 39 174
e 39 197
e 39 200
e 40 45
e 40 58
e 40 60
e 40 78
e 40 79
e 40 83
e 40 84
e 40 88
e 40 91
e 40 92
e 40 94
e 40 99
e 40 112
e 40 116
e 40 133
e 40 136
e 40 143
e 40 148
e 40 162
e 40 163
e 40 164
e 40 180
e 40 182
e 40 187
e 40 189
e 40 191
e 40 197
e 41 43
e 41 45
e 41 46
e 41 55
e 41 60
e 41 61
e 41 62
e 41 65
e 41 67
e 41 68
e 41 76
e 41 78
e 41 81
e 41 88
e 41 90
e 41 93
e 41 94
e 41 95
e 41 99
e 41 120
e 41 133
e 41 149
e 41 159
e 41 166
e 41 168
e 41 173
e 41 174
e 41 185
e 41 192
e 42 53
e 42 54
e 42 55
e 42 57
e 42 60
e 42 65
e 42 66
e 42 67
e 42 76
e 42 78
e 42 81
e 42 89
e 42 100
e 42 101
e 42 110
e 42 119
e 42 121
e 42 138
e 42 139
e 42 140
e 42 146
e 42 153
e 42 156
e 42 169
e 42 179
e 42 184
e 42 189
e 42 191
e 42 192
e 43 45
e 43 46
e 43 47
e 43 48
e 43 56
e 43 57
e 43 59
e 43 60
e 43 65
e 43 69
e 43 70
e 43 75
e 43 76
e 43 94
e 43 98
e 43 100
e 43 103
e 43 105
e 43 107
e 43 114
e 43 117
e 43 122
e 43 123
e 43 126
e 43 133
e 43 135
e 43 137
e 43 147
e 43 149
e 43 157
e 43 158
e 43 161
e 43 165
e 43 167
e 43 171
e 43 173
e 43 182
e 43 191
e 43 192
e 43 198
e 44 51
e 44 65
e 44 69
e 44 90
e 44 91
e 44 98
e 44 104
e 44 131
e 44 132
e 44 133
e 44 136
e 44 146
e 44 148
e 44 151
e 44 155
e 44 168
e 44 171
e 44 192
e 44 197
e 45 48
e 45 51
e 45 53
e 45 69
e 45 77
e 45 84
e 45 90
e 45 91
e 45 93
e 45 94
e 45 95
e 45 111
e 45 117
e 45 121
e 45 123
e 45 132
e 45 134
e 45 135
e 45 142
e 45 143
e 45 145
e 45 151
e 45 153
e 45 157
e 45 158
e 45 161
e 45 164
e 45 167
e 45 169
e 45 171
e 45 178
e 45 179
e 45 181
e 45 184
e 45 190
e 45 193
e 46 48
e 46 59
e 46 65
e 46 70
e 46 79
e 46 80
e 46 82
e 46 84
e 46 88
e 46 92
e 46 99
e 46 102
e 46 103
e 46 105
e 46 123
e 46 124
e 46 131
e 46 136
e 46 139
e 46 141
e 46 144
e 46 151
e 46 155
e 46 159
e 46 164
e 46 165
e 46 172
e 46 174
e 46 185
e 46 189
e 46 190
e 46 191
e 46 192
e 46 194
e 47 56
e 47 70
e 47 71
e 47 73
e 47 74
e 47 77
e 47 80
e 47 81
e 47 87
e 47 91
e 47 94
e 47 97
e 47 102
e 47 106
e 47 115
e 47 117
e 47 118
e 47 120
e 47 122
e 47 127
e 47 129
e 47 133
e 47 137
e 47 144
e 47 145
e 47 150
e 47 151
e 47 152
e 47 159
e 47 164
e 47 167
e 47 181
e 47 182
e 47 195
e 48 49
e 48 52
e 48 58
e 48 72
e 48 74
e 48 79
e 48 82
e 48 85
e 48 89
e 48 95
e 48 98
e 48 102
e 48 106
e 48 107
e 48 109
e 48 116
e 48 133
e 48 135
e 48 136
e 48 137
e 48 148
e 48 150
e 48 151
e 48 155
e 48 157
e 48 158
e 48 160
e 48 176
e 48 185
e 48 186
e 48 192
e 48 195
e 48 196
e 48 198
e 48 200
e 49 60
e 49 62
e 49 70
e 49 77
e 49 78
e 49 83
e 49 85
e 49 87
e 49 90
e 49 106
e 49 114
e 49 115
e 49 121
e 49 122
e 49 126
e 49 128
e 49 130
e 49 136
e 49 137
e 49 138
e 49 150
e 49 153
e 49 158
e 49 159
e 49 161
e 49 162
e 49 164
e 49 166
e 49 168
e 49 170
e 49 174
e 49 195
e 49 197
e 49 198
e 50 53
e 50 56
e 50 58
e 50 61
e 50 66
e 50 76
e 50 81
e 50 84
e 50 87
e 50 91
e 50 97
e 50 104
e 50 109
e 50 110
e 50 113
e 50 122
e 50 140
e 50 143
e 50 149
e 50 151
e 50 160
e 50 162
e 50 167
e 50 171
e 50 172
e 50 175
e 50 179
e 50 183
e 50 186
e 50 190
e 50 191
e 50 197
e 51 58
e 51 59
e 51 61
e 51 64
e 51 66
e 51 69
e 51 75
e 51 77
e 51 86
e 51 87
e 51 90
e 51 91
e 51 94
e 51 101
e 51 103
e 51 108
e 51 110
e 51 127
e 51 129
e 51 135
e 51 140
e 51 142
e 51 148
e 51 164
e 51 169
e 51 178
e 51 186
e 51 187
e 51 189
e 51 191
e 51 192
e 51 195
e 51 196
e 51 198
e 52 72
e 52 83
e 52 89
e 52 90
e 52 100
e 52 106
e 52 111
e 52 114
e 52 117
e 52 129
e 52 130
e 52 132
e 52 151
e 52 160
e 52 162
e 52 163
e 52 164
e 52 165
e 52 172
e 52 174
e 52 183
e 53 61
e 53 69
e 53 94
e 53 100
e 53 103
e 53 104
e 53 110
e 53 112
e 53 115
e 53 120
e 53 123
e 53 131
e 53 133
e 53 138
e 53 150
e 53 156
e 53 162
e 53 163
e 53 169
e 53 178
e 53 179
e 53 185
e 53 186
e 53 199
e 54 56
e 54 57
e 54 59
e 54 61
e 54 62
e 54 75
e 54 88
e 54 94
e 54 100
e 54 106
e 54 108
e 54 109
e 54 111
e 54 121
e 54 125
e 54 140
e 54 146
e 54 148
e 54 150
e 54 151
e 54 154
e 54 158
e 54 164
e 54 171
e 54 173
e 54 174
e 54 179
e 54 187
e 55 59
e 55 61
e 55 62
e 55 63
e 55 68
e 55 75
e 55 77
e 55 81
e 55 102
e 55 106
e 55 108
e 55 111
e 55 112
e 55 118
e 55 126
e 55 129
e 55 136
e 55 137
e 55 142
e 55 153
e 55 156
e 55 158
e 55 160
e 55 166
e 55 167
e 55 169
e 55 173
e 55 174
e 55 175
e 55 177
e 55 180
e 55 182
e 55 184
e 55 186
e 55 192
e 55 198
e 56 58
e 56 77
e 56 82
e 56 91
e 56 94
e 56 105
e 56 110
e 56 112
e 56 123
e 56 129
e 56 132
e 56 135
e 56 140
e 56 142
e 56 146
e 56 150
e 56 154
e 56 158
e 56 163
e 56 165
e 56 167
e 56 177
e 56 181
e 56 184
e 56 185
e 56 186
e 56 188
e 56 199
e 56 200
e 57 58
e 57 65
e 57 89
e 57 98
e 57 99
e 57 102
e 57 104
e 57 108
e 57 109
e 57 123
e 57 127
e 57 128
e 57 132
e 57 135
e 57 136
e 57 145
e 57 161
e 57 168
e 57 170
e 57 174
e 57 180
e 57 181
e 58 59
e 58 65
e 58 67
e 58 68
e 58 73
e 58 76
e 58 82
e 58 103
e 58 105
e 58 109
e 58 110
e 58 111
e 58 113
e 58 115
e 58 116
e 58 120
e 58 121
e 58 122
e 58 125
e 58 127
e 58 128
e 58 130
e 58 131
e 58 134
e 58 135
e 58 145
e 58 157
e 58 160
e 58 168
e 58 174
e 58 178
e 58 187
e 58 197
e 58 199
e 59 60
e 59 61
e 59 65
e 59 81
e 59 83
e 59 90
e 59 95
e 59 97
e 59 98
e 59 105
e 59 106
e 59 119
e 59 128
e 59 149
e 59 150
e 59 158
e 59 159
e 59 160
e 59 163
e 59 165
e 59 173
e 59 175
e 59 182
e 59 186
e 59 187
e 59 190
e 59 196
e 59 199
e 60 64
e 60 76
e 60 82
e 60 86
e 60 87
e 60 90
e 60 95
e 60 117
e 60 123
e 60 135
e 60 147
e 60 148
e 60 149
e 60 151
e 60 155
e 60 156
e 60 157
e 60 161
e 60 165
e 60 173
e 60 174
e 60 181
e 60 185
e 60 193
e 60 199
e 61 62
e 61 66
e 61 68
e 61 69
e 61 73
e 61 85
e 61 93
e 61 94
e 61 112
e 61 113
e 61 119
e 61 121
e 61 122
e 61 124
e 61 125
e 61 126
e 61 129
e 61 134
e 61 140
e 61 144
e 61 146
e 61 148
e 61 155
e 61 158
e 61 165
e 61 176
e 61 177
e 61 183
e 61 189
e 61 194
e 61 196
e 61 199
e 62 67
e 62 69
e 62 74
e 62 75
e 62 76
e 62 79
e 62 80
e 62 81
e 62 82
e 62 85
e 62 86
e 62 89
e 62 91
e 62 96
e 62 107
e 62 108
e 62 121
e 62 128
e 62 129
e 62 130
e 62 139
e 62 140
e 62 142
e 62 145
e 62 147
e 62 152
e 62 154
e 62 162
e 62 164
e 62 166
e 62 167
e 62 173
e 62 174
e 62 177
e 62 180
e 62 187
e 62 190
e 62 194
e 63 65
e 63 66
e 63 83
e 63 85
e 63 86
e 63 88
e 63 91
e 63 97
e 63 100
e 63 102
e 63 108
e 63 109
e 63 116
e 63 118
e 63 120
e 63 121
e 63 123
e 63 124
e 63 133
e 63 134
e 63 135
e 63 138
e 63 145
e 63 146
e 63 149
e 63 159
e 63 175
e 63 179
e 63 181
e 63 184
e 63 197
e 64 67
e 64 68
e 64 69
e 64 71
e 64 78
e 64 82
e 64 87
e 64 93
e 64 99
e 64 116
e 64 117
e 64 118
e 64 124
e 64 125
e 64 131
e 64 133
e 64 136
e 64 153
e 64 154
e 64 158
e 64 160
e 64 165
e 64 167
e 64 170
e 64 182
e 64 183
e 64 190
e 64 191
e 64 193
e 65 68
e 65 71
e 65 73
e 65 77
e 65 82
e 65 92
e 65 100
e 65 105
e 65 116
e 65 118
e 65 119
e 65 124
e 65 125
e 65 128
e 65 133
e 65 140
e 65 157
e 65 167
e 65 179
e 65 183
e 65 185
e 65 188
e 65 190
e 65 195
e 65 197
e 65 198
e 66 68
e 66 69
e 66 71
e 66 78
e 66 79
e 66 80
e 66 82
e 66 88
e 66 89
e 66 90
e 66 93
e 66 99
e 66 101
e 66 102
e 66 104
e 66 110
e 66 113
e 66 114
e 66 115
e 66 116
e 66 119
e 66 120
e 66 121
e 66 122
e 66 128
e 66 129
e 66 134
e 66 140
e 66 151
e 66 154
e 66 156
e 66 158
e 66 163
e 66 164
e 66 165
e 66 175
e 66 180
e 66 184
e 66 196
e 66 197
e 67 75
e 67 79
e 67 80
e 67 89
e 67 90
e 67 97
e 67 98
e 67 104
e 67 105
e 67 106
e 67 108
e 67 113
e 67 114
e 67 123
e 67 124
e 67 126
e 67 128
e 67 136
e 67 143
e 67 145
e 67 150
e 67 151
e 67 155
e 67 159
e 67 164
e 67 169
e 67 176
e 67 190
e 67 198
e 68 70
e 68 74
e 68 76
e 68 78
e 68 85
e 68 90
e 68 93
e 68 94
e 68 96
e 68 98
e 68 99
e 68 106
e 68 107
e 68 108
e 68 109
e 68 110
e 68 114
e 68 121
e 68 131
e 68 133
e 68 139
e 68 140
e 68 143
e 68 144
e 68 146
e 68 147
e 68 150
e 68 162
e 68 165
e 68 175
e 68 178
e 68 179
e 68 181
e 68 186
e 69 79
e 69 80
e 69 81
e 69 84
e 69 86
e 69 97
e 69 107
e 69 108
e 69 117
e 69 123
e 69 124
e 69 132
e 69 137
e 69 138
e 69 141
e 69 142
e 69 157
e 69 162
e 69 177
e 69 178
e 69 186
e 69 194
e 69 197
e 70 71
e 70 76
e 70 82
e 70 86
e 70 91
e 70 93
e 70 96
e 70 97
e 70 100
e 70 107
e 70 113
e 70 117
e 70 118
e 70 120
e 70 129
e 70 130
e 70 131
e 70 132
e 70 141
e 70 147
e 70 148
e 70 150
e 70 155
e 70 158
e 70 161
e 70 163
e 70 174
e 70 188
e 70 189
e 70 192
e 70 198
e 71 77
e 71 78
e 71 83
e 71 92
e 71 95
e 71 99
e 71 102
e 71 111
e 71 114
e 71 117
e 71 122
e 71 124
e 71 128
e 71 129
e 71 142
e 71 148
e 71 149
e 71 152
e 71 163
e 71 164
e 71 165
e 71 166
e 71 174
e 71 182
e 71 184
e 71 189
e 71 199
e 72 73
e 72 75
e 72 76
e 72 78
e 72 80
e 72 86
e 72 90
e 72 93
e 72 94
e 72 96
e 72 99
e 72 101
e 72 109
e 72 113
e 72 116
e 72 124
e 72 126
e 72 131
e 72 146
e 72 151
e 72 159
e 72 161
e 72 162
e 72 176
e 72 177
e 72 184
e 72 191
e 72 192
e 72 195
e 73 78
e 73 79
e 73 90
e 73 91
e 73 94
e 73 97
e 73 98
e 73 99
e 73 104
e 73 112
e 73 117
e 73 120
e 73 126
e 73 128
e 73 129
e 73 136
e 73 140
e 73 144
e 73 145
e 73 155
e 73 156
e 73 159
e 73 161
e 73 166
e 73 168
e 73 171
e 73 172
e 73 176
e 73 179
e 73 180
e 73 183
e 73 193
e 74 75
e 74 81
e 74 92
e 74 101
e 74 102
e 74 103
e 74 106
e 74 109
e 74 111
e 74 116
e 74 117
e 74 119
e 74 121
e 74 122
e 74 123
e 74 125
e 74 131
e 74 133
e 74 136
e 74 137
e 74 142
e 74 144
e 74 156
e 74 168
e 74 171
e 74 172
e 74 177
e 74 190
e 74 192
e 74 199
e 75 85
e 75 105
e 75 115
e 75 123
e 75 132
e 75 133
e 75 136
e 75 138
e 75 143
e 75 144
e 75 145
e 75 146
e 75 160
e 75 163
e 75 168
e 75 175
e 75 177
e 75 182
e 75 190
e 75 192
e 75 193
e 75 194
e 76 94
e 76 101
e 76 106
e 76 110
e 76 114
e 76 116
e 76 119
e 76 120
e 76 121
e 76 128
e 76 132
e 76 135
e 76 148
e 76 150
e 76 155
e 76 158
e 76 161
e 76 163
e 76 165
e 76 172
e 76 173
e 76 177
e 76 180
e 76 181
e 76 188
e 76 193
e 76 194
e 76 196
e 76 199
e 77 82
e 77 87
e 77 90
e 77 113
e 77 116
e 77 119
e 77 127
e 77 130
e 77 138
e 77 154
e 77 158
e 77 167
e 77 169
e 77 190
e 77 200
e 78 79
e 78 82
e 78 84
e 78 91
e 78 96
e 78 98
e 78 101
e 78 105
e 78 108
e 78 120
e 78 124
e 78 126
e 78 127
e 78 129
e 78 134
e 78 137
e 78 143
e 78 149
e 78 151
e 78 158
e 78 161
e 78 166
e 78 167
e 78 169
e 78 173
e 78 178
e 78 180
e 78 181
e 78 184
e 78 191
e 78 196
e 78 197
e 79 87
e 79 101
e 79 108
e 79 118
e 79 120
e 79 126
e 79 134
e 79 135
e 79 142
e 79 146
e 79 162
e 79 166
e 79 171
e 79 174
e 79 179
e 79 190
e 79 192
e 79 193
e 79 195
e 80 87
e 80 88
e 80 91
e 80 92
e 80 95
e 80 98
e 80 99
e 80 107
e 80 122
e 80 123
e 80 128
e 80 129
e 80 133
e 80 136
e 80 143
e 80 145
e 80 149
e 80 158
e 80 160
e 80 162
e 80 163
e 80 165
e 80 166
e 80 167
e 80 169
e 80 172
e 80 175
e 80 176
e 80 177
e 80 181
e 80 183
e 80 191
e 80 194
e 80 197
e 80 200
e 81 85
e 81 86
e 81 87
e 81 92
e 81 95
e 81 104
e 81 105
e 81 115
e 81 116
e 81 117
e 81 122
e 81 125
e 81 126
e 81 129
e 81 130
e 81 137
e 81 141
e 81 155
e 81 166
e 81 182
e 81 183
e 81 191
e 81 192
e 81 194
e 81 195
e 82 88
e 82 100
e 82 101
e 82 106
e 82 112
e 82 117
e 82 120
e 82 129
e 82 138
e 82 139
e 82 150
e 82 162
e 82 164
e 82 166
e 82 179
e 82 182
e 82 183
e 82 186
e 82 188
e 82 190
e 82 197
e 82 200
e 83 87
e 83 103
e 83 106
e 83 113
e 83 116
e 83 121
e 83 125
e 83 137
e 83 140
e 83 142
e 83 145
e 83 146
e 83 147
e 83 150
e 83 157
e 83 166
e 83 172
e 83 181
e 83 186
e 83 187
e 83 195
e 83 196
e 84 86
e 84 92
e 84 93
e 84 104
e 84 105
e 84 130
e 84 145
e 84 154
e 84 155
e 84 156
e 84 166
e 84 170
e 84 176
e 84 180
e 84 184
e 84 188
e 84 192
e 84 195
e 84 196
e 85 86
e 85 87
e 85 95
e 85 97
e 85 98
e 85 99
e 85 100
e 85 103
e 85 104
e 85 107
e 85 113
e 85 118
e 85 120
e 85 121
e 85 127
e 85 132
e 85 141
e 85 151
e 85 163
e 85 166
e 85 169
e 85 171
e 85 173
e 85 179
e 85 185
e 85 187
e 85 188
e 85 195
e 85 196
e 85 199
e 86 97
e 86 101
e 86 105
e 86 106
e 86 109
e 86 110
e 86 116
e 86 120
e 86 122
e 86 135
e 86 144
e 86 166
e 86 183
e 86 192
e 87 91
e 87 96
e 87 101
e 87 103
e 87 107
e 87 109
e 87 111
e 87 117
e 87 126
e 87 128
e 87 132
e 87 135
e 87 137
e 87 146
e 87 148
e 87 155
e 87 156
e 87 161
e 87 163
e 87 165
e 87 167
e 87 169
e 87 170
e 87 181
e 87 186
e 87 193
e 87 197
e 88 92
e 88 93
e 88 94
e 88 100
e 88 102
e 88 111
e 88 113
e 88 114
e 88 117
e 88 118
e 88 131
e 88 132
e 88 139
e 88 145
e 88 146
e 88 150
e 88 151
e 88 165
e 88 167
e 88 170
e 88 171
e 88 186
e 88 193
e 88 200
e 89 91
e 89 97
e 89 100
e 89 103
e 89 106
e 89 107
e 89 112
e 89 117
e 89 130
e 89 133
e 89 134
e 89 136
e 89 141
e 89 142
e 89 144
e 89 146
e 89 150
e 89 152
e 89 160
e 89 161
e 89 170
e 89 181
e 89 186
e 89 188
e 89 192
e 89 196
e 89 198
e 90 92
e 90 95
e 90 100
e 90 104
e 90 108
e 90 126
e 90 128
e 90 130
e 90 138
e 90 143
e 90 144
e 90 145
e 90 161
e 90 165
e 90 168
e 90 170
e 90 176
e 90 186
e 90 187
e 90 194
e 90 197
e 90 200
e 91 92
e 91 97
e 91 98
e 91 100
e 91 104
e 91 110
e 91 122
e 91 125
e 91 127
e 91 140
e 91 150
e 91 153
e 91 154
e 91 155
e 91 159
e 91 174
e 91 179
e 91 191
e 91 193
e 91 194
e 91 195
e 91 196
e 91 199
e 92 104
e 92 110
e 92 111
e 92 112
e 92 113
e 92 122
e 92 123
e 92 129
e 92 131
e 92 132
e 92 136
e 92 141
e 92 142
e 92 145
e 92 149
e 92 160
e 92 162
e 92 166
e 92 167
e 92 169
e 92 173
e 92 179
e 92 188
e 92 199
e 93 94
e 93 96
e 93 102
e 93 104
e 93 107
e 93 110
e 93 116
e 93 117
e 93 121
e 93 122
e 93 128
e 93 129
e 93 140
e 93 142
e 93 147
e 93 148
e 93 149
e 93 153
e 93 159
e 93 160
e 93 165
e 93 171
e 93 177
e 93 182
e 93 187
e 93 188
e 93 189
e 94 103
e 94 106
e 94 108
e 94 121
e 94 133
e 94 150
e 94 151
e 94 159
e 94 169
e 94 179
e 94 183
e 94 184
e 94 189
e 94 190
e 94 191
e 94 192
e 95 103
e 95 104
e 95 115
e 95 128
e 95 129
e 95 131
e 95 133
e 95 134
e 95 140
e 95 141
e 95 153
e 95 156
e 95 163
e 95 164
e 95 167
e 95 172
e 95 175
e 95 182
e 95 184
e 95 185
e 95 186
e 95 197
e 96 107
e 96 110
e 96 116
e 96 119
e 96 121
e 96 124
e 96 129
e 96 130
e 96 131
e 96 140
e 96 151
e 96 177
e 96 186
e 96 192
e 97 98
e 97 99
e 97 104
e 97 105
e 97 111
e 97 113
e 97 114
e 97 121
e 97 128
e 97 133
e 97 134
e 97 139
e 97 142
e 97 146
e 97 150
e 97 164
e 97 165
e 97 166
e 97 169
e 97 171
e 97 185
e 97 194
e 97 197
e 97 198
e 97 200
e 98 109
e 98 118
e 98 122
e 98 124
e 98 128
e 98 134
e 98 147
e 98 151
e 98 154
e 98 156
e 98 164
e 98 165
e 98 173
e 98 174
e 98 186
e 98 188
e 98 192
e 98 194
e 98 195
e 99 111
e 99 112
e 99 117
e 99 125
e 99 126
e 99 130
e 99 143
e 99 149
e 99 150
e 99 154
e 99 160
e 99 162
e 99 171
e 99 183
e 99 187
e 99 188
e 99 198
e 99 199
e 100 104
e 100 105
e 100 106
e 100 107
e 100 111
e 100 122
e 100 124
e 100 129
e 100 133
e 100 140
e 100 144
e 100 148
e 100 150
e 100 153
e 100 155
e 100 169
e 100 175
e 100 176
e 100 177
e 100 183
e 100 192
e 100 193
e 100 196
e 100 197
e 100 199
e 101 106
e 101 110
e 101 118
e 101 122
e 101 127
e 101 133
e 101 135
e 101 137
e 101 145
e 101 146
e 101 151
e 101 163
e 101 170
e 101 177
e 101 179
e 101 180
e 101 183
e 101 186
e 101 199
e 102 117
e 102 121
e 102 137
e 102 145
e 102 148
e 102 149
e 102 162
e 102 167
e 102 173
e 102 186
e 102 193
e 102 195
e 102 196
e 102 197
e 102 200
e 103 104
e 103 105
e 103 108
e 103 110
e 103 119
e 103 120
e 103 123
e 103 130
e 103 133
e 103 141
e 103 149
e 103 152
e 103 153
e 103 154
e 103 157
e 103 164
e 103 171
e 103 180
e 103 182
e 103 184
e 103 198
e 103 199
e 103 200
e 104 105
e 104 111
e 104 114
e 104 116
e 104 118
e 104 122
e 104 130
e 104 140
e 104 143
e 104 145
e 104 151
e 104 154
e 104 163
e 104 167
e 104 168
e 104 171
e 104 180
e 104 186
e 104 195
e 104 197
e 105 107
e 105 110
e 105 111
e 105 115
e 105 122
e 105 128
e 105 131
e 105 134
e 105 140
e 105 142
e 105 143
e 105 150
e 105 151
e 105 153
e 105 154
e 105 159
e 105 162
e 105 172
e 105 188
e 106 111
e 106 112
e 106 121
e 106 124
e 106 128
e 106 130
e 106 133
e 106 138
e 106 140
e 106 147
e 106 155
e 106 156
e 106 159
e 106 164
e 106 165
e 106 171
e 106 174
e 106 177
e 106 179
e 106 183
e 106 185
e 106 187
e 106 189
e 106 190
e 106 198
e 107 112
e 107 119
e 107 121
e 107 127
e 107 129
e 107 134
e 107 137
e 107 140
e 107 142
e 107 147
e 107 160
e 107 164
e 107 167
e 107 169
e 107 176
e 107 177
e 107 181
e 107 193
e 107 194
e 107 196
e 107 198
e 108 114
e 108 118
e 108 121
e 108 123
e 108 135
e 108 138
e 108 139
e 108 140
e 108 142
e 108 152
e 108 154
e 108 156
e 108 160
e 108 161
e 108 165
e 108 166
e 108 169
e 108 170
e 108 176
e 108 179
e 108 181
e 108 183
e 108 198
e 109 113
e 109 116
e 109 122
e 109 139
e 109 148
e 109 152
e 109 155
e 109 162
e 109 166
e 109 169
e 109 171
e 109 179
e 109 186
e 109 187
e 109 196
e 110 114
e 110 120
e 110 129
e 110 136
e 110 137
e 110 141
e 110 154
e 110 158
e 110 163
e 110 167
e 110 168
e 110 169
e 110 172
e 110 198
e 111 114
e 111 121
e 111 123
e 111 125
e 111 135
e 111 137
e 111 139
e 111 141
e 111 152
e 111 156
e 111 157
e 111 158
e 111 162
e 111 164
e 111 167
e 111 171
e 111 174
e 111 175
e 111 186
e 111 187
e 111 196
e 112 113
e 112 120
e 112 125
e 112 132
e 112 134
e 112 136
e 112 138
e 112 141
e 112 144
e 112 147
e 112 153
e 112 156
e 112 165
e 112 168
e 112 170
e 112 175
e 112 176
e 112 180
e 112 186
e 112 189
e 112 197
e 112 200
e 113 115
e 113 120
e 113 127
e 113 129
e 113 138
e 113 140
e 113 153
e 113 156
e 113 157
e 113 162
e 113 168
e 113 175
e 113 177
e 113 178
e 113 182
e 113 200
e 114 117
e 114 118
e 114 123
e 114 136
e 114 140
e 114 142
e 114 151
e 114 163
e 114 165
e 114 167
e 114 177
e 114 185
e 114 187
e 114 188
e 114 191
e 114 193
e 114 196
e 115 122
e 115 126
e 115 127
e 115 128
e 115 134
e 115 135
e 115 138
e 115 139
e 115 142
e 115 146
e 115 147
e 115 154
e 115 156
e 115 159
e 115 160
e 115 173
e 115 178
e 115 181
e 115 192
e 115 194
e 115 196
e 115 197
e 115 199
e 116 120
e 116 121
e 116 123
e 116 126
e 116 130
e 116 131
e 116 139
e 116 140
e 116 147
e 116 148
e 116 149
e 116 159
e 116 160
e 116 168
e 116 171
e 116 174
e 116 180
e 116 182
e 116 185
e 116 200
e 117 119
e 117 124
e 117 136
e 117 145
e 117 152
e 117 153
e 117 155
e 117 159
e 117 160
e 117 166
e 117 175
e 117 188
e 117 192
e 117 198
e 117 199
e 118 124
e 118 127
e 118 138
e 118 143
e 118 144
e 118 161
e 118 165
e 118 172
e 118 183
e 118 188
e 118 190
e 119 120
e 119 125
e 119 132
e 119 136
e 119 138
e 119 143
e 119 149
e 119 151
e 119 155
e 119 159
e 119 161
e 119 167
e 119 168
e 119 200
e 120 124
e 120 125
e 120 127
e 120 130
e 120 132
e 120 138
e 120 141
e 120 144
e 120 152
e 120 157
e 120 160
e 120 161
e 120 162
e 120 166
e 120 168
e 120 171
e 120 172
e 120 177
e 120 179
e 120 180
e 120 182
e 120 186
e 120 191
e 120 197
e 120 198
e 120 199
e 120 200
e 121 124
e 121 126
e 121 129
e 121 133
e 121 150
e 121 157
e 121 158
e 121 166
e 121 167
e 121 171
e 121 174
e 121 177
e 121 191
e 121 192
e 121 196
e 122 124
e 122 137
e 122 148
e 122 149
e 122 151
e 122 152
e 122 155
e 122 157
e 122 174
e 122 176
e 122 182
e 122 184
e 122 192
e 122 198
e 122 199
e 123 145
e 123 147
e 123 153
e 123 168
e 123 169
e 123 176
e 123 177
e 123 179
e 123 185
e 123 188
e 123 190
e 124 128
e 124 129
e 124 135
e 124 136
e 124 137
e 124 140
e 124 151
e 124 153
e 124 156
e 124 159
e 124 169
e 124 173
e 124 187
e 124 195
e 124 198
e 125 126
e 125 135
e 125 138
e 125 139
e 125 144
e 125 154
e 125 155
e 125 157
e 125 164
e 125 168
e 125 173
e 125 183
e 125 184
e 125 187
e 125 198
e 126 133
e 126 134
e 126 144
e 126 148
e 126 162
e 126 165
e 126 166
e 126 182
e 126 184
e 126 186
e 126 189
e 126 194
e 126 195
e 126 197
e 127 130
e 127 131
e 127 132
e 127 133
e 127 135
e 127 136
e 127 138
e 127 155
e 127 156
e 127 161
e 127 164
e 127 168
e 127 169
e 127 171
e 127 178
e 127 183
e 127 200
e 128 129
e 128 134
e 128 135
e 128 138
e 128 143
e 128 148
e 128 150
e 128 156
e 128 163
e 128 167
e 128 171
e 128 172
e 128 174
e 128 181
e 128 187
e 128 189
e 128 191
e 128 196
e 129 140
e 129 142
e 129 144
e 129 149
e 129 153
e 129 158
e 129 163
e 129 167
e 129 169
e 129 172
e 129 177
e 129 179
e 129 183
e 129 185
e 129 191
e 129 193
e 130 140
e 130 141
e 130 142
e 130 147
e 130 148
e 130 157
e 130 159
e 130 164
e 130 178
e 130 189
e 130 190
e 130 191
e 130 194
e 130 197
e 131 133
e 131 137
e 131 146
e 131 148
e 131 158
e 131 160
e 131 165
e 131 166
e 131 176
e 131 187
e 132 135
e 132 136
e 132 137
e 132 139
e 132 140
e 132 141
e 132 150
e 132 154
e 132 157
e 132 158
e 132 160
e 132 162
e 132 171
e 132 176
e 132 181
e 132 184
e 132 193
e 133 135
e 133 146
e 133 158
e 133 159
e 133 165
e 133 166
e 133 174
e 133 177
e 133 178
e 133 182
e 133 185
e 133 187
e 133 193
e 133 194
e 134 135
e 134 141
e 134 147
e 134 148
e 134 152
e 134 157
e 134 158
e 134 165
e 134 168
e 134 174
e 134 180
e 134 181
e 134 182
e 134 191
e 134 194
e 134 195
e 134 198
e 135 136
e 135 143
e 135 154
e 135 156
e 135 158
e 135 160
e 135 164
e 135 165
e 135 166
e 135 168
e 135 169
e 135 172
e 135 173
e 135 178
e 135 189
e 135 200
e 136 137
e 136 143
e 136 145
e 136 149
e 136 152
e 136 161
e 136 162
e 136 163
e 136 164
e 136 166
e 136 171
e 136 172
e 136 177
e 136 179
e 136 181
e 136 188
e 137 146
e 137 153
e 137 160
e 137 161
e 137 166
e 137 171
e 137 177
e 137 184
e 137 188
e 137 190
e 137 191
e 138 140
e 138 143
e 138 152
e 138 156
e 138 157
e 138 164
e 138 172
e 138 173
e 138 182
e 138 192
e 138 194
e 138 196
e 139 148
e 139 155
e 139 164
e 139 175
e 139 180
e 139 191
e 139 192
e 139 194
e 139 195
e 139 197
e 140 141
e 140 148
e 140 150
e 140 151
e 140 162
e 140 165
e 140 180
e 140 183
e 141 142
e 141 146
e 141 163
e 141 164
e 141 171
e 141 174
e 141 178
e 141 192
e 142 143
e 142 145
e 142 147
e 142 155
e 142 158
e 142 163
e 142 165
e 142 169
e 142 175
e 142 179
e 142 189
e 142 190
e 143 144
e 143 153
e 143 168
e 143 176
e 143 188
e 143 189
e 144 146
e 144 149
e 144 159
e 144 164
e 144 175
e 144 177
e 144 181
e 144 182
e 144 184
e 144 193
e 144 194
e 144 196
e 144 197
e 144 200
e 145 152
e 145 160
e 145 161
e 145 167
e 145 172
e 145 184
e 145 187
e 145 190
e 145 192
e 146 153
e 146 154
e 146 156
e 146 157
e 146 165
e 146 167
e 146 169
e 146 171
e 146 182
e 146 187
e 146 191
e 146 196
e 147 154
e 147 157
e 147 160
e 147 166
e 147 177
e 147 179
e 147 183
e 147 186
e 147 187
e 147 190
e 147 192
e 148 152
e 148 153
e 148 155
e 148 163
e 148 167
e 148 169
e 148 181
e 148 186
e 148 192
e 148 199
e 149 151
e 149 153
e 149 162
e 149 163
e 149 164
e 149 165
e 149 174
e 149 177
e 149 180
e 149 184
e 149 188
e 150 152
e 150 155
e 150 166
e 150 169
e 150 170
e 150 182
e 150 183
e 150 185
e 150 193
e 150 194
e 151 156
e 151 167
e 151 171
e 151 173
e 151 179
e 151 180
e 151 186
e 151 190
e 151 196
e 151 197
e 151 199
e 152 156
e 152 161
e 152 168
e 152 169
e 152 171
e 152 173
e 152 176
e 152 178
e 152 181
e 152 182
e 152 186
e 152 192
e 153 155
e 153 166
e 153 169
e 153 170
e 153 172
e 153 178
e 153 179
e 153 183
e 153 184
e 153 185
e 153 190
e 153 191
e 154 155
e 154 159
e 154 161
e 154 163
e 154 164
e 154 173
e 154 174
e 154 178
e 154 179
e 154 184
e 154 186
e 154 190
e 154 194
e 154 200
e 155 159
e 155 164
e 155 165
e 155 166
e 155 167
e 155 168
e 155 178
e 155 190
e 155 193
e 155 194
e 156 164
e 156 168
e 156 171
e 156 182
e 156 183
e 156 186
e 156 194
e 156 195
e 156 196
e 156 197
e 157 167
e 157 171
e 157 189
e 157 191
e 157 192
e 157 193
e 157 194
e 157 198
e 158 164
e 158 168
e 158 173
e 158 182
e 158 184
e 158 185
e 159 160
e 159 161
e 159 163
e 159 164
e 159 166
e 159 173
e 159 175
e 159 193
e 159 200
e 160 171
e 160 178
e 160 182
e 160 186
e 161 166
e 161 175
e 161 184
e 161 185
e 161 187
e 161 190
e 161 192
e 161 195
e 161 196
e 161 200
e 162 165
e 162 168
e 162 170
e 162 191
e 162 200
e 163 169
e 163 171
e 163 175
e 163 181
e 163 182
e 163 183
e 163 189
e 163 191
e 163 197
e 164 167
e 164 168
e 164 174
e 164 184
e 164 188
e 164 198
e 164 199
e 165 168
e 165 170
e 165 174
e 165 178
e 165 182
e 165 185
e 165 187
e 165 189
e 165 194
e 166 168
e 166 169
e 166 176
e 166 186
e 166 189
e 166 190
e 167 171
e 167 172
e 167 174
e 167 175
e 167 179
e 167 188
e 167 189
e 167 194
e 167 195
e 167 198
e 167 199
e 168 170
e 168 171
e 168 172
e 168 176
e 168 178
e 168 179
e 168 182
e 168 187
e 168 188
e 168 193
e 169 173
e 169 177
e 169 179
e 169 184
e 169 186
e 169 190
e 169 200
e 170 175
e 170 177
e 170 184
e 170 198
e 170 199
e 171 173
e 171 182
e 171 188
e 171 190
e 171 193
e 172 173
e 172 178
e 172 191
e 172 200
e 173 175
e 173 179
e 173 190
e 173 192
e 173 194
e 173 196
e 174 179
e 174 180
e 174 183
e 174 184
e 174 186
e 174 191
e 174 196
e 174 198
e 174 199
e 175 181
e 175 187
e 176 180
e 176 183
e 176 184
e 176 191
e 176 196
e 177 179
e 177 180
e 177 190
e 177 192
e 177 196
e 177 197
e 178 179
e 178 181
e 178 188
e 178 189
e 178 190
e 178 192
e 178 196
e 179 181
e 180 187
e 180 190
e 180 193
e 181 184
e 181 188
e 181 193
e 182 184
e 182 197
e 182 199
e 183 191
e 183 192
e 184 185
e 184 191
e 184 200
e 185 195
e 185 196
e 186 191
e 186 192
e 186 194
e 186 199
e 187 189
e 188 198
e 188 200
e 189 190
e 189 199
e 189 200
e 191 195
e 192 196
e 194 195
e 194 200
e 195 196
e 195 199
e 195 200
e 196 197
e 198 199
e 198 200
